% Instance for pentominoes model generated using https://github.com/zayenz/minizinc-pentominoes-generator
% Instance generated for board size 10 with 10 tiles using 17 as seed
% Generated board
%    4455bb1122
%    5555bb1122
%    999bbbb222
%    9997732222
%    9997732222
%    6697722222
%    6666662222
%    6666662288
%    6666662888
%    6666688888

size = 10;
tiles = 10;
expressions = [
    "( ([2 3 4 5 6 7 8 9 10 11]* 1{2} [2 3 4 5 6 7 8 9 10 11]{2} [2 3 4 5 6 7 8 9 10 11] [2 3 4 5 6 7 8 9 10 11]{6} 1{2} [2 3 4 5 6 7 8 9 10 11]*) | ([2 3 4 5 6 7 8 9 10 11]* 1{2} [2 3 4 5 6 7 8 9 10 11] [2 3 4 5 6 7 8 9 10 11]{8} 1{2} [2 3 4 5 6 7 8 9 10 11]*) | ([2 3 4 5 6 7 8 9 10 11]* 1{2} [2 3 4 5 6 7 8 9 10 11]{6} [2 3 4 5 6 7 8 9 10 11] [2 3 4 5 6 7 8 9 10 11]{2} 1{2} [2 3 4 5 6 7 8 9 10 11]*) | ([2 3 4 5 6 7 8 9 10 11]* 1{2} [2 3 4 5 6 7 8 9 10 11]{8} [2 3 4 5 6 7 8 9 10 11] 1{2} [2 3 4 5 6 7 8 9 10 11]*) )",
    "( ([1 3 4 5 6 7 8 9 10 11]* 2{2} [1 3 4 5 6 7 8 9 10 11] [1 3 4 5 6 7 8 9 10 11]{8} 2{2} [1 3 4 5 6 7 8 9 10 11] [1 3 4 5 6 7 8 9 10 11]{7} 2{3} [1 3 4 5 6 7 8 9 10 11] [1 3 4 5 6 7 8 9 10 11]{6} 2{4} [1 3 4 5 6 7 8 9 10 11] [1 3 4 5 6 7 8 9 10 11]{6} 2{4} [1 3 4 5 6 7 8 9 10 11] [1 3 4 5 6 7 8 9 10 11]{5} 2{5} [1 3 4 5 6 7 8 9 10 11] [1 3 4 5 6 7 8 9 10 11]{6} 2{4} [1 3 4 5 6 7 8 9 10 11] [1 3 4 5 6 7 8 9 10 11]{6} 2{2} [1 3 4 5 6 7 8 9 10 11]{2} [1 3 4 5 6 7 8 9 10 11] [1 3 4 5 6 7 8 9 10 11]{6} 2{1} [1 3 4 5 6 7 8 9 10 11]*) | ([1 3 4 5 6 7 8 9 10 11]* 2{1} [1 3 4 5 6 7 8 9 10 11]{5} [1 3 4 5 6 7 8 9 10 11] [1 3 4 5 6 7 8 9 10 11]{1} 2{6} [1 3 4 5 6 7 8 9 10 11]{3} [1 3 4 5 6 7 8 9 10 11] [1 3 4 5 6 7 8 9 10 11]{2} 2{6} [1 3 4 5 6 7 8 9 10 11]{2} [1 3 4 5 6 7 8 9 10 11] [1 3 4 5 6 7 8 9 10 11]{3} 2{7} [1 3 4 5 6 7 8 9 10 11] [1 3 4 5 6 7 8 9 10 11]{3} 2{7} [1 3 4 5 6 7 8 9 10 11]*) | ([1 3 4 5 6 7 8 9 10 11]* 2{1} [1 3 4 5 6 7 8 9 10 11]{6} [1 3 4 5 6 7 8 9 10 11] [1 3 4 5 6 7 8 9 10 11]{2} 2{2} [1 3 4 5 6 7 8 9 10 11]{6} [1 3 4 5 6 7 8 9 10 11] 2{4} [1 3 4 5 6 7 8 9 10 11]{6} [1 3 4 5 6 7 8 9 10 11] 2{5} [1 3 4 5 6 7 8 9 10 11]{5} [1 3 4 5 6 7 8 9 10 11] 2{4} [1 3 4 5 6 7 8 9 10 11]{6} [1 3 4 5 6 7 8 9 10 11] 2{4} [1 3 4 5 6 7 8 9 10 11]{6} [1 3 4 5 6 7 8 9 10 11] 2{3} [1 3 4 5 6 7 8 9 10 11]{7} [1 3 4 5 6 7 8 9 10 11] 2{2} [1 3 4 5 6 7 8 9 10 11]{8} [1 3 4 5 6 7 8 9 10 11] 2{2} [1 3 4 5 6 7 8 9 10 11]*) | ([1 3 4 5 6 7 8 9 10 11]* 2{7} [1 3 4 5 6 7 8 9 10 11]{3} [1 3 4 5 6 7 8 9 10 11] 2{7} [1 3 4 5 6 7 8 9 10 11]{3} [1 3 4 5 6 7 8 9 10 11] [1 3 4 5 6 7 8 9 10 11]{2} 2{6} [1 3 4 5 6 7 8 9 10 11]{2} [1 3 4 5 6 7 8 9 10 11] [1 3 4 5 6 7 8 9 10 11]{3} 2{6} [1 3 4 5 6 7 8 9 10 11]{1} [1 3 4 5 6 7 8 9 10 11] [1 3 4 5 6 7 8 9 10 11]{5} 2{1} [1 3 4 5 6 7 8 9 10 11]*) | ([1 3 4 5 6 7 8 9 10 11]* 2{2} [1 3 4 5 6 7 8 9 10 11]{8} [1 3 4 5 6 7 8 9 10 11] 2{2} [1 3 4 5 6 7 8 9 10 11]{8} [1 3 4 5 6 7 8 9 10 11] 2{3} [1 3 4 5 6 7 8 9 10 11]{7} [1 3 4 5 6 7 8 9 10 11] 2{4} [1 3 4 5 6 7 8 9 10 11]{6} [1 3 4 5 6 7 8 9 10 11] 2{4} [1 3 4 5 6 7 8 9 10 11]{6} [1 3 4 5 6 7 8 9 10 11] 2{5} [1 3 4 5 6 7 8 9 10 11]{5} [1 3 4 5 6 7 8 9 10 11] 2{4} [1 3 4 5 6 7 8 9 10 11]{6} [1 3 4 5 6 7 8 9 10 11] [1 3 4 5 6 7 8 9 10 11]{2} 2{2} [1 3 4 5 6 7 8 9 10 11]{6} [1 3 4 5 6 7 8 9 10 11] [1 3 4 5 6 7 8 9 10 11]{3} 2{1} [1 3 4 5 6 7 8 9 10 11]*) | ([1 3 4 5 6 7 8 9 10 11]* 2{1} [1 3 4 5 6 7 8 9 10 11]{4} [1 3 4 5 6 7 8 9 10 11] [1 3 4 5 6 7 8 9 10 11]{3} 2{6} [1 3 4 5 6 7 8 9 10 11]{1} [1 3 4 5 6 7 8 9 10 11] [1 3 4 5 6 7 8 9 10 11]{2} 2{6} [1 3 4 5 6 7 8 9 10 11]{2} [1 3 4 5 6 7 8 9 10 11] 2{7} [1 3 4 5 6 7 8 9 10 11]{3} [1 3 4 5 6 7 8 9 10 11] 2{7} [1 3 4 5 6 7 8 9 10 11]*) | ([1 3 4 5 6 7 8 9 10 11]* 2{1} [1 3 4 5 6 7 8 9 10 11]{3} [1 3 4 5 6 7 8 9 10 11] [1 3 4 5 6 7 8 9 10 11]{6} 2{2} [1 3 4 5 6 7 8 9 10 11]{2} [1 3 4 5 6 7 8 9 10 11] [1 3 4 5 6 7 8 9 10 11]{6} 2{4} [1 3 4 5 6 7 8 9 10 11] [1 3 4 5 6 7 8 9 10 11]{5} 2{5} [1 3 4 5 6 7 8 9 10 11] [1 3 4 5 6 7 8 9 10 11]{6} 2{4} [1 3 4 5 6 7 8 9 10 11] [1 3 4 5 6 7 8 9 10 11]{6} 2{4} [1 3 4 5 6 7 8 9 10 11] [1 3 4 5 6 7 8 9 10 11]{7} 2{3} [1 3 4 5 6 7 8 9 10 11] [1 3 4 5 6 7 8 9 10 11]{8} 2{2} [1 3 4 5 6 7 8 9 10 11] [1 3 4 5 6 7 8 9 10 11]{8} 2{2} [1 3 4 5 6 7 8 9 10 11]*) | ([1 3 4 5 6 7 8 9 10 11]* 2{7} [1 3 4 5 6 7 8 9 10 11] [1 3 4 5 6 7 8 9 10 11]{3} 2{7} [1 3 4 5 6 7 8 9 10 11] [1 3 4 5 6 7 8 9 10 11]{2} 2{6} [1 3 4 5 6 7 8 9 10 11]{2} [1 3 4 5 6 7 8 9 10 11] [1 3 4 5 6 7 8 9 10 11]{1} 2{6} [1 3 4 5 6 7 8 9 10 11]{3} [1 3 4 5 6 7 8 9 10 11] [1 3 4 5 6 7 8 9 10 11]{4} 2{1} [1 3 4 5 6 7 8 9 10 11]*) )",
    "( ([1 2 4 5 6 7 8 9 10 11]* 3{1} [1 2 4 5 6 7 8 9 10 11]{4} [1 2 4 5 6 7 8 9 10 11] [1 2 4 5 6 7 8 9 10 11]{5} 3{1} [1 2 4 5 6 7 8 9 10 11]*) | ([1 2 4 5 6 7 8 9 10 11]* 3{2} [1 2 4 5 6 7 8 9 10 11]*) | ([1 2 4 5 6 7 8 9 10 11]* 3{1} [1 2 4 5 6 7 8 9 10 11]{5} [1 2 4 5 6 7 8 9 10 11] [1 2 4 5 6 7 8 9 10 11]{4} 3{1} [1 2 4 5 6 7 8 9 10 11]*) )",
    "( ([1 2 3 5 6 7 8 9 10 11]* 4{2} [1 2 3 5 6 7 8 9 10 11]*) | ([1 2 3 5 6 7 8 9 10 11]* 4{1} [1 2 3 5 6 7 8 9 10 11] [1 2 3 5 6 7 8 9 10 11]{9} 4{1} [1 2 3 5 6 7 8 9 10 11]*) | ([1 2 3 5 6 7 8 9 10 11]* 4{1} [1 2 3 5 6 7 8 9 10 11]{9} [1 2 3 5 6 7 8 9 10 11] 4{1} [1 2 3 5 6 7 8 9 10 11]*) )",
    "( ([1 2 3 4 6 7 8 9 10 11]* 5{2} [1 2 3 4 6 7 8 9 10 11]{6} [1 2 3 4 6 7 8 9 10 11] 5{4} [1 2 3 4 6 7 8 9 10 11]*) | ([1 2 3 4 6 7 8 9 10 11]* 5{1} [1 2 3 4 6 7 8 9 10 11]{1} [1 2 3 4 6 7 8 9 10 11] [1 2 3 4 6 7 8 9 10 11]{8} 5{1} [1 2 3 4 6 7 8 9 10 11]{1} [1 2 3 4 6 7 8 9 10 11] [1 2 3 4 6 7 8 9 10 11]{8} 5{2} [1 2 3 4 6 7 8 9 10 11] [1 2 3 4 6 7 8 9 10 11]{8} 5{2} [1 2 3 4 6 7 8 9 10 11]*) | ([1 2 3 4 6 7 8 9 10 11]* 5{4} [1 2 3 4 6 7 8 9 10 11] [1 2 3 4 6 7 8 9 10 11]{6} 5{2} [1 2 3 4 6 7 8 9 10 11]*) | ([1 2 3 4 6 7 8 9 10 11]* 5{2} [1 2 3 4 6 7 8 9 10 11]{8} [1 2 3 4 6 7 8 9 10 11] 5{2} [1 2 3 4 6 7 8 9 10 11]{8} [1 2 3 4 6 7 8 9 10 11] [1 2 3 4 6 7 8 9 10 11]{1} 5{1} [1 2 3 4 6 7 8 9 10 11]{8} [1 2 3 4 6 7 8 9 10 11] [1 2 3 4 6 7 8 9 10 11]{1} 5{1} [1 2 3 4 6 7 8 9 10 11]*) | ([1 2 3 4 6 7 8 9 10 11]* 5{2} [1 2 3 4 6 7 8 9 10 11]{2} [1 2 3 4 6 7 8 9 10 11] [1 2 3 4 6 7 8 9 10 11]{6} 5{4} [1 2 3 4 6 7 8 9 10 11]*) | ([1 2 3 4 6 7 8 9 10 11]* 5{1} [1 2 3 4 6 7 8 9 10 11]{8} [1 2 3 4 6 7 8 9 10 11] [1 2 3 4 6 7 8 9 10 11]{1} 5{1} [1 2 3 4 6 7 8 9 10 11]{8} [1 2 3 4 6 7 8 9 10 11] 5{2} [1 2 3 4 6 7 8 9 10 11]{8} [1 2 3 4 6 7 8 9 10 11] 5{2} [1 2 3 4 6 7 8 9 10 11]*) | ([1 2 3 4 6 7 8 9 10 11]* 5{4} [1 2 3 4 6 7 8 9 10 11]{6} [1 2 3 4 6 7 8 9 10 11] [1 2 3 4 6 7 8 9 10 11]{2} 5{2} [1 2 3 4 6 7 8 9 10 11]*) | ([1 2 3 4 6 7 8 9 10 11]* 5{2} [1 2 3 4 6 7 8 9 10 11] [1 2 3 4 6 7 8 9 10 11]{8} 5{2} [1 2 3 4 6 7 8 9 10 11] [1 2 3 4 6 7 8 9 10 11]{8} 5{1} [1 2 3 4 6 7 8 9 10 11]{1} [1 2 3 4 6 7 8 9 10 11] [1 2 3 4 6 7 8 9 10 11]{8} 5{1} [1 2 3 4 6 7 8 9 10 11]*) )",
    "( ([1 2 3 4 5 7 8 9 10 11]* 6{2} [1 2 3 4 5 7 8 9 10 11]{8} [1 2 3 4 5 7 8 9 10 11] 6{6} [1 2 3 4 5 7 8 9 10 11]{4} [1 2 3 4 5 7 8 9 10 11] 6{6} [1 2 3 4 5 7 8 9 10 11]{4} [1 2 3 4 5 7 8 9 10 11] 6{6} [1 2 3 4 5 7 8 9 10 11]{4} [1 2 3 4 5 7 8 9 10 11] 6{5} [1 2 3 4 5 7 8 9 10 11]*) | ([1 2 3 4 5 7 8 9 10 11]* 6{5} [1 2 3 4 5 7 8 9 10 11]{5} [1 2 3 4 5 7 8 9 10 11] 6{5} [1 2 3 4 5 7 8 9 10 11]{5} [1 2 3 4 5 7 8 9 10 11] 6{4} [1 2 3 4 5 7 8 9 10 11]{6} [1 2 3 4 5 7 8 9 10 11] 6{4} [1 2 3 4 5 7 8 9 10 11]{6} [1 2 3 4 5 7 8 9 10 11] 6{4} [1 2 3 4 5 7 8 9 10 11]{6} [1 2 3 4 5 7 8 9 10 11] [1 2 3 4 5 7 8 9 10 11]{1} 6{3} [1 2 3 4 5 7 8 9 10 11]*) | ([1 2 3 4 5 7 8 9 10 11]* 6{5} [1 2 3 4 5 7 8 9 10 11] [1 2 3 4 5 7 8 9 10 11]{4} 6{6} [1 2 3 4 5 7 8 9 10 11] [1 2 3 4 5 7 8 9 10 11]{4} 6{6} [1 2 3 4 5 7 8 9 10 11] [1 2 3 4 5 7 8 9 10 11]{4} 6{6} [1 2 3 4 5 7 8 9 10 11] [1 2 3 4 5 7 8 9 10 11]{8} 6{2} [1 2 3 4 5 7 8 9 10 11]*) | ([1 2 3 4 5 7 8 9 10 11]* 6{3} [1 2 3 4 5 7 8 9 10 11]{1} [1 2 3 4 5 7 8 9 10 11] [1 2 3 4 5 7 8 9 10 11]{6} 6{4} [1 2 3 4 5 7 8 9 10 11] [1 2 3 4 5 7 8 9 10 11]{6} 6{4} [1 2 3 4 5 7 8 9 10 11] [1 2 3 4 5 7 8 9 10 11]{6} 6{4} [1 2 3 4 5 7 8 9 10 11] [1 2 3 4 5 7 8 9 10 11]{5} 6{5} [1 2 3 4 5 7 8 9 10 11] [1 2 3 4 5 7 8 9 10 11]{5} 6{5} [1 2 3 4 5 7 8 9 10 11]*) | ([1 2 3 4 5 7 8 9 10 11]* 6{2} [1 2 3 4 5 7 8 9 10 11] [1 2 3 4 5 7 8 9 10 11]{4} 6{6} [1 2 3 4 5 7 8 9 10 11] [1 2 3 4 5 7 8 9 10 11]{4} 6{6} [1 2 3 4 5 7 8 9 10 11] [1 2 3 4 5 7 8 9 10 11]{4} 6{6} [1 2 3 4 5 7 8 9 10 11] [1 2 3 4 5 7 8 9 10 11]{5} 6{5} [1 2 3 4 5 7 8 9 10 11]*) | ([1 2 3 4 5 7 8 9 10 11]* 6{5} [1 2 3 4 5 7 8 9 10 11] [1 2 3 4 5 7 8 9 10 11]{5} 6{5} [1 2 3 4 5 7 8 9 10 11] [1 2 3 4 5 7 8 9 10 11]{6} 6{4} [1 2 3 4 5 7 8 9 10 11] [1 2 3 4 5 7 8 9 10 11]{6} 6{4} [1 2 3 4 5 7 8 9 10 11] [1 2 3 4 5 7 8 9 10 11]{6} 6{4} [1 2 3 4 5 7 8 9 10 11] [1 2 3 4 5 7 8 9 10 11]{6} 6{3} [1 2 3 4 5 7 8 9 10 11]*) | ([1 2 3 4 5 7 8 9 10 11]* 6{5} [1 2 3 4 5 7 8 9 10 11]{5} [1 2 3 4 5 7 8 9 10 11] 6{6} [1 2 3 4 5 7 8 9 10 11]{4} [1 2 3 4 5 7 8 9 10 11] 6{6} [1 2 3 4 5 7 8 9 10 11]{4} [1 2 3 4 5 7 8 9 10 11] 6{6} [1 2 3 4 5 7 8 9 10 11]{4} [1 2 3 4 5 7 8 9 10 11] 6{2} [1 2 3 4 5 7 8 9 10 11]*) | ([1 2 3 4 5 7 8 9 10 11]* 6{3} [1 2 3 4 5 7 8 9 10 11]{6} [1 2 3 4 5 7 8 9 10 11] 6{4} [1 2 3 4 5 7 8 9 10 11]{6} [1 2 3 4 5 7 8 9 10 11] 6{4} [1 2 3 4 5 7 8 9 10 11]{6} [1 2 3 4 5 7 8 9 10 11] 6{4} [1 2 3 4 5 7 8 9 10 11]{6} [1 2 3 4 5 7 8 9 10 11] 6{5} [1 2 3 4 5 7 8 9 10 11]{5} [1 2 3 4 5 7 8 9 10 11] 6{5} [1 2 3 4 5 7 8 9 10 11]*) )",
    "( ([1 2 3 4 5 6 8 9 10 11]* 7{2} [1 2 3 4 5 6 8 9 10 11]{5} [1 2 3 4 5 6 8 9 10 11] [1 2 3 4 5 6 8 9 10 11]{3} 7{2} [1 2 3 4 5 6 8 9 10 11]{5} [1 2 3 4 5 6 8 9 10 11] [1 2 3 4 5 6 8 9 10 11]{3} 7{2} [1 2 3 4 5 6 8 9 10 11]*) | ([1 2 3 4 5 6 8 9 10 11]* 7{3} [1 2 3 4 5 6 8 9 10 11]{3} [1 2 3 4 5 6 8 9 10 11] [1 2 3 4 5 6 8 9 10 11]{4} 7{3} [1 2 3 4 5 6 8 9 10 11]*) | ([1 2 3 4 5 6 8 9 10 11]* 7{2} [1 2 3 4 5 6 8 9 10 11]{3} [1 2 3 4 5 6 8 9 10 11] [1 2 3 4 5 6 8 9 10 11]{5} 7{2} [1 2 3 4 5 6 8 9 10 11]{3} [1 2 3 4 5 6 8 9 10 11] [1 2 3 4 5 6 8 9 10 11]{5} 7{2} [1 2 3 4 5 6 8 9 10 11]*) | ([1 2 3 4 5 6 8 9 10 11]* 7{3} [1 2 3 4 5 6 8 9 10 11]{4} [1 2 3 4 5 6 8 9 10 11] [1 2 3 4 5 6 8 9 10 11]{3} 7{3} [1 2 3 4 5 6 8 9 10 11]*) )",
    "( ([1 2 3 4 5 6 7 9 10 11]* 8{2} [1 2 3 4 5 6 7 9 10 11] [1 2 3 4 5 6 7 9 10 11]{7} 8{3} [1 2 3 4 5 6 7 9 10 11] [1 2 3 4 5 6 7 9 10 11]{5} 8{5} [1 2 3 4 5 6 7 9 10 11]*) | ([1 2 3 4 5 6 7 9 10 11]* 8{1} [1 2 3 4 5 6 7 9 10 11]{9} [1 2 3 4 5 6 7 9 10 11] 8{1} [1 2 3 4 5 6 7 9 10 11]{9} [1 2 3 4 5 6 7 9 10 11] 8{2} [1 2 3 4 5 6 7 9 10 11]{8} [1 2 3 4 5 6 7 9 10 11] 8{3} [1 2 3 4 5 6 7 9 10 11]{7} [1 2 3 4 5 6 7 9 10 11] 8{3} [1 2 3 4 5 6 7 9 10 11]*) | ([1 2 3 4 5 6 7 9 10 11]* 8{5} [1 2 3 4 5 6 7 9 10 11]{5} [1 2 3 4 5 6 7 9 10 11] 8{3} [1 2 3 4 5 6 7 9 10 11]{7} [1 2 3 4 5 6 7 9 10 11] 8{2} [1 2 3 4 5 6 7 9 10 11]*) | ([1 2 3 4 5 6 7 9 10 11]* 8{3} [1 2 3 4 5 6 7 9 10 11] [1 2 3 4 5 6 7 9 10 11]{7} 8{3} [1 2 3 4 5 6 7 9 10 11] [1 2 3 4 5 6 7 9 10 11]{8} 8{2} [1 2 3 4 5 6 7 9 10 11] [1 2 3 4 5 6 7 9 10 11]{9} 8{1} [1 2 3 4 5 6 7 9 10 11] [1 2 3 4 5 6 7 9 10 11]{9} 8{1} [1 2 3 4 5 6 7 9 10 11]*) | ([1 2 3 4 5 6 7 9 10 11]* 8{2} [1 2 3 4 5 6 7 9 10 11]{8} [1 2 3 4 5 6 7 9 10 11] 8{3} [1 2 3 4 5 6 7 9 10 11]{7} [1 2 3 4 5 6 7 9 10 11] 8{5} [1 2 3 4 5 6 7 9 10 11]*) | ([1 2 3 4 5 6 7 9 10 11]* 8{1} [1 2 3 4 5 6 7 9 10 11] [1 2 3 4 5 6 7 9 10 11]{9} 8{1} [1 2 3 4 5 6 7 9 10 11] [1 2 3 4 5 6 7 9 10 11]{8} 8{2} [1 2 3 4 5 6 7 9 10 11] [1 2 3 4 5 6 7 9 10 11]{7} 8{3} [1 2 3 4 5 6 7 9 10 11] [1 2 3 4 5 6 7 9 10 11]{7} 8{3} [1 2 3 4 5 6 7 9 10 11]*) | ([1 2 3 4 5 6 7 9 10 11]* 8{5} [1 2 3 4 5 6 7 9 10 11] [1 2 3 4 5 6 7 9 10 11]{7} 8{3} [1 2 3 4 5 6 7 9 10 11] [1 2 3 4 5 6 7 9 10 11]{8} 8{2} [1 2 3 4 5 6 7 9 10 11]*) | ([1 2 3 4 5 6 7 9 10 11]* 8{3} [1 2 3 4 5 6 7 9 10 11]{7} [1 2 3 4 5 6 7 9 10 11] 8{3} [1 2 3 4 5 6 7 9 10 11]{7} [1 2 3 4 5 6 7 9 10 11] 8{2} [1 2 3 4 5 6 7 9 10 11]{8} [1 2 3 4 5 6 7 9 10 11] 8{1} [1 2 3 4 5 6 7 9 10 11]{9} [1 2 3 4 5 6 7 9 10 11] 8{1} [1 2 3 4 5 6 7 9 10 11]*) )",
    "( ([1 2 3 4 5 6 7 8 10 11]* 9{3} [1 2 3 4 5 6 7 8 10 11]{7} [1 2 3 4 5 6 7 8 10 11] 9{3} [1 2 3 4 5 6 7 8 10 11]{7} [1 2 3 4 5 6 7 8 10 11] 9{3} [1 2 3 4 5 6 7 8 10 11]{7} [1 2 3 4 5 6 7 8 10 11] [1 2 3 4 5 6 7 8 10 11]{2} 9{1} [1 2 3 4 5 6 7 8 10 11]*) | ([1 2 3 4 5 6 7 8 10 11]* 9{3} [1 2 3 4 5 6 7 8 10 11]{2} [1 2 3 4 5 6 7 8 10 11] [1 2 3 4 5 6 7 8 10 11]{5} 9{3} [1 2 3 4 5 6 7 8 10 11]{2} [1 2 3 4 5 6 7 8 10 11] [1 2 3 4 5 6 7 8 10 11]{4} 9{4} [1 2 3 4 5 6 7 8 10 11]*) | ([1 2 3 4 5 6 7 8 10 11]* 9{1} [1 2 3 4 5 6 7 8 10 11]{2} [1 2 3 4 5 6 7 8 10 11] [1 2 3 4 5 6 7 8 10 11]{7} 9{3} [1 2 3 4 5 6 7 8 10 11] [1 2 3 4 5 6 7 8 10 11]{7} 9{3} [1 2 3 4 5 6 7 8 10 11] [1 2 3 4 5 6 7 8 10 11]{7} 9{3} [1 2 3 4 5 6 7 8 10 11]*) | ([1 2 3 4 5 6 7 8 10 11]* 9{4} [1 2 3 4 5 6 7 8 10 11]{4} [1 2 3 4 5 6 7 8 10 11] [1 2 3 4 5 6 7 8 10 11]{2} 9{3} [1 2 3 4 5 6 7 8 10 11]{5} [1 2 3 4 5 6 7 8 10 11] [1 2 3 4 5 6 7 8 10 11]{2} 9{3} [1 2 3 4 5 6 7 8 10 11]*) | ([1 2 3 4 5 6 7 8 10 11]* 9{3} [1 2 3 4 5 6 7 8 10 11] [1 2 3 4 5 6 7 8 10 11]{7} 9{3} [1 2 3 4 5 6 7 8 10 11] [1 2 3 4 5 6 7 8 10 11]{7} 9{3} [1 2 3 4 5 6 7 8 10 11] [1 2 3 4 5 6 7 8 10 11]{7} 9{1} [1 2 3 4 5 6 7 8 10 11]*) | ([1 2 3 4 5 6 7 8 10 11]* 9{3} [1 2 3 4 5 6 7 8 10 11]{5} [1 2 3 4 5 6 7 8 10 11] [1 2 3 4 5 6 7 8 10 11]{2} 9{3} [1 2 3 4 5 6 7 8 10 11]{5} [1 2 3 4 5 6 7 8 10 11] [1 2 3 4 5 6 7 8 10 11]{2} 9{4} [1 2 3 4 5 6 7 8 10 11]*) | ([1 2 3 4 5 6 7 8 10 11]* 9{1} [1 2 3 4 5 6 7 8 10 11]{7} [1 2 3 4 5 6 7 8 10 11] 9{3} [1 2 3 4 5 6 7 8 10 11]{7} [1 2 3 4 5 6 7 8 10 11] 9{3} [1 2 3 4 5 6 7 8 10 11]{7} [1 2 3 4 5 6 7 8 10 11] 9{3} [1 2 3 4 5 6 7 8 10 11]*) | ([1 2 3 4 5 6 7 8 10 11]* 9{4} [1 2 3 4 5 6 7 8 10 11]{2} [1 2 3 4 5 6 7 8 10 11] [1 2 3 4 5 6 7 8 10 11]{5} 9{3} [1 2 3 4 5 6 7 8 10 11]{2} [1 2 3 4 5 6 7 8 10 11] [1 2 3 4 5 6 7 8 10 11]{5} 9{3} [1 2 3 4 5 6 7 8 10 11]*) )",
    "( ([1 2 3 4 5 6 7 8 9 11]* 10{2} [1 2 3 4 5 6 7 8 9 11]{4} [1 2 3 4 5 6 7 8 9 11] [1 2 3 4 5 6 7 8 9 11]{4} 10{2} [1 2 3 4 5 6 7 8 9 11]{4} [1 2 3 4 5 6 7 8 9 11] [1 2 3 4 5 6 7 8 9 11]{3} 10{4} [1 2 3 4 5 6 7 8 9 11]*) | ([1 2 3 4 5 6 7 8 9 11]* 10{1} [1 2 3 4 5 6 7 8 9 11]{2} [1 2 3 4 5 6 7 8 9 11] [1 2 3 4 5 6 7 8 9 11]{7} 10{3} [1 2 3 4 5 6 7 8 9 11] [1 2 3 4 5 6 7 8 9 11]{7} 10{3} [1 2 3 4 5 6 7 8 9 11] [1 2 3 4 5 6 7 8 9 11]{7} 10{1} [1 2 3 4 5 6 7 8 9 11]*) | ([1 2 3 4 5 6 7 8 9 11]* 10{4} [1 2 3 4 5 6 7 8 9 11]{3} [1 2 3 4 5 6 7 8 9 11] [1 2 3 4 5 6 7 8 9 11]{4} 10{2} [1 2 3 4 5 6 7 8 9 11]{4} [1 2 3 4 5 6 7 8 9 11] [1 2 3 4 5 6 7 8 9 11]{4} 10{2} [1 2 3 4 5 6 7 8 9 11]*) | ([1 2 3 4 5 6 7 8 9 11]* 10{1} [1 2 3 4 5 6 7 8 9 11]{7} [1 2 3 4 5 6 7 8 9 11] 10{3} [1 2 3 4 5 6 7 8 9 11]{7} [1 2 3 4 5 6 7 8 9 11] 10{3} [1 2 3 4 5 6 7 8 9 11]{7} [1 2 3 4 5 6 7 8 9 11] [1 2 3 4 5 6 7 8 9 11]{2} 10{1} [1 2 3 4 5 6 7 8 9 11]*) )",
];
